data/MCDM/NO_CORR/GEN_FROM_60/10_ITEMS_1000_GEN/K5011W18.KNP.mps
NAME          BLANK   
ROWS
 N  OBJROW
 L  R0000000
COLUMNS
    C0000000  OBJROW     -184.         R0000000  59.         
    C0000001  OBJROW     -435.         R0000000  446.        
    C0000002  OBJROW     -386.         R0000000  253.        
    C0000003  OBJROW     -49.          R0000000  311.        
    C0000004  OBJROW     -672.         R0000000  140.        
    C0000005  OBJROW     -16.          R0000000  116.        
    C0000006  OBJROW     -875.         R0000000  183.        
    C0000007  OBJROW     -150.         R0000000  172.        
    C0000008  OBJROW     -965.         R0000000  999.        
    C0000009  OBJROW     -534.         R0000000  876.        
    C0000010  OBJROW     -654.         R0000000  669.        
RHS
    RHS       R0000000  14132.      
BOUNDS
 BV BOUND     C0000000  1.          
 BV BOUND     C0000001  1.          
 BV BOUND     C0000002  1.          
 BV BOUND     C0000003  1.          
 BV BOUND     C0000004  1.          
 BV BOUND     C0000005  1.          
 BV BOUND     C0000006  1.          
 BV BOUND     C0000007  1.          
 BV BOUND     C0000008  1.          
 BV BOUND     C0000009  1.          
 BV BOUND     C0000010  1.          
ENDATA
