data/MCDM/NO_CORR/GEN_FROM_60/10_ITEMS_1000_GEN/K5011W18.KNP.txt
N 11
M 12
LC 11
LC 12
LC 13
LC 14
LC 15
LC 16
LC 17
LC 18
LC 19
LC 20
LC 21
LR 1
LR 2
LR 3
LR 4
LR 5
LR 6
LR 7
LR 8
LR 9
LR 10
LR 11
LR 12
LO -184
LO -435
LO -386
LO -49
LO -672
LO -16
LO -875
LO -150
LO -965
LO -534
LO -654
OS 1
IC 344
IC 491
IC 660
IC 280
IC 705
IC 482
IC 991
IC 595
IC 128
IC 403
IC 378
IB 2729
